TIP.Original.Linear/tip2015_weird_nat_mul3_assoc2.smt2
(set-logic HORN)
(declare-datatypes ((Nat_484 0)) (((zero_128 ) (succ_125 (p_353 Nat_484)))))
(declare-fun diseqNat_484 (Nat_484 Nat_484) Bool)
(declare-fun p_354 (Nat_484 Nat_484) Bool)
(declare-fun iszero_125 (Nat_484) Bool)
(declare-fun issucc_125 (Nat_484) Bool)
(assert (forall ((x_51788 Nat_484))
	(p_354 x_51788 (succ_125 x_51788))))
(assert (iszero_125 zero_128))
(assert (forall ((x_51790 Nat_484))
	(issucc_125 (succ_125 x_51790))))
(assert (forall ((x_51791 Nat_484))
	(diseqNat_484 zero_128 (succ_125 x_51791))))
(assert (forall ((x_51792 Nat_484))
	(diseqNat_484 (succ_125 x_51792) zero_128)))
(assert (forall ((x_51793 Nat_484) (x_51794 Nat_484))
	(=> (diseqNat_484 x_51793 x_51794)
	    (diseqNat_484 (succ_125 x_51793) (succ_125 x_51794)))))
(declare-fun plus_123 (Nat_484 Nat_484 Nat_484) Bool)
(assert (forall ((x_51690 Nat_484) (z_1738 Nat_484) (y_1956 Nat_484))
	(=> (plus_123 x_51690 z_1738 y_1956)
	    (plus_123 (succ_125 x_51690) (succ_125 z_1738) y_1956))))
(assert (forall ((x_51691 Nat_484))
	(plus_123 x_51691 zero_128 x_51691)))
(declare-fun add_306 (Nat_484 Nat_484 Nat_484 Nat_484) Bool)
(assert (forall ((x_51692 Nat_484) (x_51693 Nat_484) (x_51674 Nat_484) (y_1957 Nat_484) (z_1739 Nat_484))
	(=>	(and (add_306 x_51693 x_51674 y_1957 z_1739)
			(plus_123 x_51692 (succ_125 zero_128) x_51693))
		(add_306 x_51692 (succ_125 x_51674) y_1957 z_1739))))
(assert (forall ((x_51695 Nat_484) (x_51696 Nat_484) (x_51675 Nat_484) (z_1739 Nat_484))
	(=>	(and (add_306 x_51696 zero_128 x_51675 z_1739)
			(plus_123 x_51695 (succ_125 zero_128) x_51696))
		(add_306 x_51695 zero_128 (succ_125 x_51675) z_1739))))
(assert (forall ((x_51698 Nat_484))
	(add_306 x_51698 zero_128 zero_128 x_51698)))
(declare-fun mul_10 (Nat_484 Nat_484 Nat_484 Nat_484) Bool)
(assert (forall ((x_51699 Nat_484) (x_51700 Nat_484) (x_51701 Nat_484) (x_51702 Nat_484) (x_51703 Nat_484) (x_51704 Nat_484) (x_51705 Nat_484) (fail_29 Nat_484))
	(=>	(and (mul_10 x_51699 zero_128 zero_128 zero_128)
			(mul_10 x_51700 (succ_125 zero_128) zero_128 zero_128)
			(mul_10 x_51701 zero_128 (succ_125 zero_128) zero_128)
			(mul_10 x_51702 zero_128 zero_128 (succ_125 zero_128))
			(add_306 x_51703 x_51700 x_51701 x_51702)
			(add_306 x_51704 zero_128 zero_128 zero_128)
			(add_306 x_51705 x_51699 x_51703 x_51704)
			(plus_123 fail_29 (succ_125 zero_128) x_51705))
		(mul_10 (succ_125 zero_128) (succ_125 zero_128) (succ_125 zero_128) (succ_125 zero_128)))))
(assert (forall ((x_51708 Nat_484) (x_51709 Nat_484) (x_51710 Nat_484) (x_51711 Nat_484) (x_51712 Nat_484) (x_51713 Nat_484) (x_51714 Nat_484) (fail_29 Nat_484) (x_51679 Nat_484) (x_51678 Nat_484) (x_51677 Nat_484))
	(=>	(and (diseqNat_484 x_51677 zero_128)
			(mul_10 x_51708 x_51677 x_51678 x_51679)
			(mul_10 x_51709 (succ_125 zero_128) x_51678 x_51679)
			(mul_10 x_51710 x_51677 (succ_125 zero_128) x_51679)
			(mul_10 x_51711 x_51677 x_51678 (succ_125 zero_128))
			(add_306 x_51712 x_51709 x_51710 x_51711)
			(add_306 x_51713 x_51677 x_51678 x_51679)
			(add_306 x_51714 x_51708 x_51712 x_51713)
			(plus_123 fail_29 (succ_125 zero_128) x_51714))
		(mul_10 fail_29 (succ_125 x_51677) (succ_125 x_51678) (succ_125 x_51679)))))
(assert (forall ((x_51717 Nat_484) (x_51718 Nat_484) (x_51719 Nat_484) (x_51720 Nat_484) (x_51721 Nat_484) (x_51722 Nat_484) (x_51723 Nat_484) (fail_29 Nat_484) (x_51679 Nat_484) (x_51678 Nat_484))
	(=>	(and (diseqNat_484 x_51678 zero_128)
			(mul_10 x_51717 zero_128 x_51678 x_51679)
			(mul_10 x_51718 (succ_125 zero_128) x_51678 x_51679)
			(mul_10 x_51719 zero_128 (succ_125 zero_128) x_51679)
			(mul_10 x_51720 zero_128 x_51678 (succ_125 zero_128))
			(add_306 x_51721 x_51718 x_51719 x_51720)
			(add_306 x_51722 zero_128 x_51678 x_51679)
			(add_306 x_51723 x_51717 x_51721 x_51722)
			(plus_123 fail_29 (succ_125 zero_128) x_51723))
		(mul_10 fail_29 (succ_125 zero_128) (succ_125 x_51678) (succ_125 x_51679)))))
(assert (forall ((x_51726 Nat_484) (x_51727 Nat_484) (x_51728 Nat_484) (x_51729 Nat_484) (x_51730 Nat_484) (x_51731 Nat_484) (x_51732 Nat_484) (fail_29 Nat_484) (x_51679 Nat_484) (x_51678 Nat_484) (x_51677 Nat_484))
	(=>	(and (diseqNat_484 x_51677 zero_128)
			(mul_10 x_51726 x_51677 x_51678 x_51679)
			(mul_10 x_51727 (succ_125 zero_128) x_51678 x_51679)
			(mul_10 x_51728 x_51677 (succ_125 zero_128) x_51679)
			(mul_10 x_51729 x_51677 x_51678 (succ_125 zero_128))
			(add_306 x_51730 x_51727 x_51728 x_51729)
			(add_306 x_51731 x_51677 x_51678 x_51679)
			(add_306 x_51732 x_51726 x_51730 x_51731)
			(plus_123 fail_29 (succ_125 zero_128) x_51732))
		(mul_10 fail_29 (succ_125 x_51677) (succ_125 x_51678) (succ_125 x_51679)))))
(assert (forall ((x_51735 Nat_484) (x_51736 Nat_484) (x_51737 Nat_484) (x_51738 Nat_484) (x_51739 Nat_484) (x_51740 Nat_484) (x_51741 Nat_484) (fail_29 Nat_484) (x_51679 Nat_484))
	(=>	(and (diseqNat_484 x_51679 zero_128)
			(mul_10 x_51735 zero_128 zero_128 x_51679)
			(mul_10 x_51736 (succ_125 zero_128) zero_128 x_51679)
			(mul_10 x_51737 zero_128 (succ_125 zero_128) x_51679)
			(mul_10 x_51738 zero_128 zero_128 (succ_125 zero_128))
			(add_306 x_51739 x_51736 x_51737 x_51738)
			(add_306 x_51740 zero_128 zero_128 x_51679)
			(add_306 x_51741 x_51735 x_51739 x_51740)
			(plus_123 fail_29 (succ_125 zero_128) x_51741))
		(mul_10 fail_29 (succ_125 zero_128) (succ_125 zero_128) (succ_125 x_51679)))))
(assert (forall ((x_51744 Nat_484) (x_51745 Nat_484) (x_51746 Nat_484) (x_51747 Nat_484) (x_51748 Nat_484) (x_51749 Nat_484) (x_51750 Nat_484) (fail_29 Nat_484) (x_51679 Nat_484) (x_51678 Nat_484) (x_51677 Nat_484))
	(=>	(and (diseqNat_484 x_51677 zero_128)
			(mul_10 x_51744 x_51677 x_51678 x_51679)
			(mul_10 x_51745 (succ_125 zero_128) x_51678 x_51679)
			(mul_10 x_51746 x_51677 (succ_125 zero_128) x_51679)
			(mul_10 x_51747 x_51677 x_51678 (succ_125 zero_128))
			(add_306 x_51748 x_51745 x_51746 x_51747)
			(add_306 x_51749 x_51677 x_51678 x_51679)
			(add_306 x_51750 x_51744 x_51748 x_51749)
			(plus_123 fail_29 (succ_125 zero_128) x_51750))
		(mul_10 fail_29 (succ_125 x_51677) (succ_125 x_51678) (succ_125 x_51679)))))
(assert (forall ((x_51753 Nat_484) (x_51754 Nat_484) (x_51755 Nat_484) (x_51756 Nat_484) (x_51757 Nat_484) (x_51758 Nat_484) (x_51759 Nat_484) (fail_29 Nat_484) (x_51679 Nat_484) (x_51678 Nat_484))
	(=>	(and (diseqNat_484 x_51678 zero_128)
			(mul_10 x_51753 zero_128 x_51678 x_51679)
			(mul_10 x_51754 (succ_125 zero_128) x_51678 x_51679)
			(mul_10 x_51755 zero_128 (succ_125 zero_128) x_51679)
			(mul_10 x_51756 zero_128 x_51678 (succ_125 zero_128))
			(add_306 x_51757 x_51754 x_51755 x_51756)
			(add_306 x_51758 zero_128 x_51678 x_51679)
			(add_306 x_51759 x_51753 x_51757 x_51758)
			(plus_123 fail_29 (succ_125 zero_128) x_51759))
		(mul_10 fail_29 (succ_125 zero_128) (succ_125 x_51678) (succ_125 x_51679)))))
(assert (forall ((x_51762 Nat_484) (x_51763 Nat_484) (x_51764 Nat_484) (x_51765 Nat_484) (x_51766 Nat_484) (x_51767 Nat_484) (x_51768 Nat_484) (fail_29 Nat_484) (x_51679 Nat_484) (x_51678 Nat_484) (x_51677 Nat_484))
	(=>	(and (diseqNat_484 x_51677 zero_128)
			(mul_10 x_51762 x_51677 x_51678 x_51679)
			(mul_10 x_51763 (succ_125 zero_128) x_51678 x_51679)
			(mul_10 x_51764 x_51677 (succ_125 zero_128) x_51679)
			(mul_10 x_51765 x_51677 x_51678 (succ_125 zero_128))
			(add_306 x_51766 x_51763 x_51764 x_51765)
			(add_306 x_51767 x_51677 x_51678 x_51679)
			(add_306 x_51768 x_51762 x_51766 x_51767)
			(plus_123 fail_29 (succ_125 zero_128) x_51768))
		(mul_10 fail_29 (succ_125 x_51677) (succ_125 x_51678) (succ_125 x_51679)))))
(assert (forall ((x_51678 Nat_484) (x_51677 Nat_484))
	(mul_10 zero_128 (succ_125 x_51677) (succ_125 x_51678) zero_128)))
(assert (forall ((x_51677 Nat_484) (z_1740 Nat_484))
	(mul_10 zero_128 (succ_125 x_51677) zero_128 z_1740)))
(assert (forall ((y_1958 Nat_484) (z_1740 Nat_484))
	(mul_10 zero_128 zero_128 y_1958 z_1740)))
(assert (forall ((x_51774 Nat_484) (x_51775 Nat_484) (x_51776 Nat_484) (x_51777 Nat_484) (x_51680 Nat_484) (x_51681 Nat_484) (x_51682 Nat_484) (x_51683 Nat_484) (x_51684 Nat_484))
	(=>	(and true
			(diseqNat_484 x_51775 x_51777)
			(mul_10 x_51774 x_51680 x_51681 x_51682)
			(mul_10 x_51775 x_51774 x_51683 x_51684)
			(mul_10 x_51776 x_51681 x_51682 x_51683)
			(mul_10 x_51777 x_51680 x_51776 x_51684))
		false)))
(assert (forall ((x_51778 Nat_484) (x_51779 Nat_484) (x_51780 Nat_484) (x_51781 Nat_484) (x_51685 Nat_484) (y_1959 Nat_484) (z_1741 Nat_484))
	(=>	(and true
			(diseqNat_484 x_51779 x_51781)
			(plus_123 x_51778 y_1959 z_1741)
			(plus_123 x_51779 x_51685 x_51778)
			(plus_123 x_51780 x_51685 y_1959)
			(plus_123 x_51781 x_51780 z_1741))
		false)))
(assert (forall ((x_51782 Nat_484) (x_51783 Nat_484) (x_51686 Nat_484) (y_1960 Nat_484))
	(=>	(and true
			(diseqNat_484 x_51782 x_51783)
			(plus_123 x_51782 x_51686 y_1960)
			(plus_123 x_51783 y_1960 x_51686))
		false)))
(assert (forall ((x_51784 Nat_484) (x_51687 Nat_484))
	(=>	(and true
			(diseqNat_484 x_51784 x_51687)
			(plus_123 x_51784 x_51687 zero_128))
		false)))
(assert (forall ((x_51785 Nat_484) (x_51688 Nat_484))
	(=>	(and true
			(diseqNat_484 x_51785 x_51688)
			(plus_123 x_51785 zero_128 x_51688))
		false)))
(check-sat)
